Optimal - objective value 3133.00000000
      5 x_0_6                   1                      57
     17 x_1_0                   1                     118
     43 x_2_10                  1                       0
     66 x_3_16                  1                     -10
     72 x_4_5                   1                       0
    101 x_5_17                  1                       0
    104 x_6_2                   1                       0
    131 x_7_13                  1                       0
    139 x_8_3                   1                       0
    157 x_9_4                   1                       0
    177 x_10_7                  1                     221
    195 x_11_8                  1                       0
    213 x_12_9                  1                       0
    232 x_13_11                 1                       0
    239 x_14_1                  1                    -164
    269 x_15_14                 1                       0
    284 x_16_12                 1                     338
    304 x_17_15                 1                      97
    306 u_1                    17                       0
    307 u_2                     2                       0
    308 u_3                     8                       0
    309 u_4                    12                       0
    310 u_5                    13                       0
    311 u_6                     1                       0
    312 u_7                     4                       0
    313 u_8                     7                       0
    314 u_9                    11                       0
    315 u_10                    3                       0
    316 u_11                    6                       0
    317 u_12                   10                       0
    318 u_13                    5                       0
    319 u_14                   16                       0
    320 u_15                   15                       0
    321 u_16                    9                       0
    322 u_17                   14                       0
